
Gurobi 9.5.2 (win64) logging started Mon Mar 27 21:39:18 2023

Set parameter LogFile to value "2023-03-27_20hr-25min-09sec/Nodes30_Arcs35_LocNodes22/Formulation-1Instance-2.log"
Set parameter TimeLimit to value 600
Set parameter IntFeasTol to value 1e-09
Set parameter DualReductions to value 0
Set parameter NonConvex to value 2
Gurobi Optimizer version 9.5.2 build v9.5.2rc0 (win64)
Thread count: 4 physical cores, 8 logical processors, using up to 8 threads
Optimize a model with 118 rows, 204 columns and 418 nonzeros
Model fingerprint: 0x5d503f6e
Model has 22 quadratic objective terms
Model has 65 SOS constraints
Variable types: 182 continuous, 22 integer (22 binary)
Coefficient statistics:
  Matrix range     [5e-03, 2e+02]
  Objective range  [3e+00, 2e+02]
  QObjective range [2e+00, 2e+00]
  Bounds range     [1e+00, 1e+00]
  RHS range        [6e-02, 2e+03]
Presolve removed 12 rows and 17 columns
Presolve time: 0.00s
Presolved: 143 rows, 207 columns, 458 nonzeros
Presolved model has 54 SOS constraint(s)
Presolved model has 18 bilinear constraint(s)
Variable types: 185 continuous, 22 integer (22 binary)

Root relaxation: unbounded, 109 iterations, 0.00 seconds (0.00 work units)

    Nodes    |    Current Node    |     Objective Bounds      |     Work
 Expl Unexpl |  Obj  Depth IntInf | Incumbent    BestBd   Gap | It/Node Time

     0     0  postponed    0               -          -      -     -    0s
     0     0  postponed    0               -          -      -     -    0s
Exploring 100 nodes in MinRel heuristic
No solution found by MinRel heuristic
     0     2  postponed    0               -          -      -     -    0s
Exploring 10000 nodes in MinRel heuristic
H 5177  1019                    -7776.448604          -      -  18.4    1s
Feasible solution found by MinRel heuristic at node 615
 20941  1414 infeasible   41      -7776.4486          -      -  15.8    5s
 41570  2045  postponed   41      -7776.4486          -      -  14.4   10s
 62136  2171 infeasible   38      -7776.4486          -      -  14.3   15s
 80656  2253 infeasible   41      -7776.4486          -      -  14.7   20s
 98231  2381 infeasible   40      -7776.4486          -      -  15.3   25s
 116509  2355  postponed   38      -7776.4486          -      -  15.6   30s
 133663  2283 infeasible   40      -7776.4486          -      -  15.5   35s
 152032  2063  postponed   40      -7776.4486          -      -  15.4   40s
 170564  1980 infeasible   41      -7776.4486          -      -  15.2   45s
 189231  1910  postponed   42      -7776.4486          -      -  14.9   50s
 209149  1963 infeasible   42      -7776.4486          -      -  14.5   55s
 229601  2355  postponed   42      -7776.4486          -      -  14.2   60s
 248527  2699 infeasible   43      -7776.4486          -      -  14.1   65s
 266517  2904 infeasible   43      -7776.4486          -      -  14.0   70s
 285578  2808  postponed   42      -7776.4486          -      -  13.9   75s
 303784  2698 infeasible   43      -7776.4486          -      -  13.9   80s
 320716  2646  postponed   43      -7776.4486          -      -  13.8   85s
 340031  2542  postponed   40      -7776.4486          -      -  13.8   90s
 358006  2418  postponed   29      -7776.4486          -      -  13.8   95s
 376476  2352  postponed   41      -7776.4486          -      -  13.8  100s
 395477  2410  postponed   42      -7776.4486          -      -  13.8  105s
 413625  2281  postponed   42      -7776.4486          -      -  13.8  110s
 430940  2251 infeasible   43      -7776.4486          -      -  13.8  115s
 450197  2379  postponed   42      -7776.4486          -      -  13.7  120s
 468146  2373 infeasible   41      -7776.4486          -      -  13.7  125s
 486304  2192  postponed   36      -7776.4486          -      -  13.7  130s
 504902  2199 infeasible   45      -7776.4486          -      -  13.7  135s
 523312  2253  postponed   36      -7776.4486          -      -  13.6  140s
 542317  2258  postponed   42      -7776.4486          -      -  13.6  145s
 561359  2168 infeasible   41      -7776.4486          -      -  13.6  150s
 579641  2016 infeasible   41      -7776.4486          -      -  13.6  155s
 599210  1967 infeasible   42      -7776.4486          -      -  13.5  160s
 618651  2270  postponed   39      -7776.4486          -      -  13.5  165s
 637980  2245  postponed   38      -7776.4486          -      -  13.5  170s
 657195  2172 infeasible   42      -7776.4486          -      -  13.4  175s
 676775  2040  postponed   41      -7776.4486          -      -  13.4  180s
 694710  1920  postponed   41      -7776.4486          -      -  13.4  185s
 714313  1829 infeasible   44      -7776.4486          -      -  13.4  190s
 734845  2097  postponed   33      -7776.4486          -      -  13.3  195s
 753814  2209 infeasible   42      -7776.4486          -      -  13.3  200s
 771191  2089 infeasible   43      -7776.4486          -      -  13.3  205s
 790570  2049 infeasible   42      -7776.4486          -      -  13.3  210s
 810128  2017 infeasible   31      -7776.4486          -      -  13.3  215s
 831128  2019 infeasible   41      -7776.4486          -      -  13.2  220s
 851842  1861  postponed   39      -7776.4486          -      -  13.2  225s
 870887  1895  postponed   40      -7776.4486          -      -  13.2  230s
 891235  1853  postponed   41      -7776.4486          -      -  13.2  235s
 910717  1808 infeasible   45      -7776.4486          -      -  13.1  240s
 930124  1813 infeasible   43      -7776.4486          -      -  13.1  245s
 949438  1865  postponed   38      -7776.4486          -      -  13.1  250s
 968595  1839  postponed   41      -7776.4486          -      -  13.1  255s
 987024  1751  postponed   39      -7776.4486          -      -  13.1  260s
 1006714  1672 infeasible   45      -7776.4486          -      -  13.1  265s
 1027366  1688  postponed   40      -7776.4486          -      -  13.1  270s
 1047794  1580 infeasible   41      -7776.4486          -      -  13.0  275s
 1066714  1985  postponed   40      -7776.4486          -      -  13.0  280s
 1087094  2060  postponed   41      -7776.4486          -      -  13.0  285s
 1106437  1978  postponed   38      -7776.4486          -      -  13.0  290s
 1123870  1954 infeasible   43      -7776.4486          -      -  13.1  295s
 1142018  1881  postponed   45      -7776.4486          -      -  13.1  300s
 1161306  1836 infeasible   38      -7776.4486          -      -  13.1  305s
 1179654  1764 infeasible   45      -7776.4486          -      -  13.1  310s
 1198320  1725  postponed   41      -7776.4486          -      -  13.1  315s
 1216590  1680  postponed   39      -7776.4486          -      -  13.1  320s
 1234549  1776  postponed   43      -7776.4486          -      -  13.1  325s
 1253386  1999 infeasible   44      -7776.4486          -      -  13.1  330s
 1271435  2075  postponed   42      -7776.4486          -      -  13.1  335s
 1289256  2235  postponed   39      -7776.4486          -      -  13.2  340s
 1307520  2204  postponed   39      -7776.4486          -      -  13.2  345s
 1325489  2026 infeasible   45      -7776.4486          -      -  13.2  350s
 1343685  1884 infeasible   42      -7776.4486          -      -  13.2  355s
 1361847  1739  postponed   39      -7776.4486          -      -  13.3  360s
 1380226  1663  postponed   41      -7776.4486          -      -  13.3  365s
 1399849  1542 infeasible   42      -7776.4486          -      -  13.3  370s
 1418296  1642 infeasible   43      -7776.4486          -      -  13.2  375s
 1436749  1501  postponed   39      -7776.4486          -      -  13.2  380s
 1455018  1600  postponed   38      -7776.4486          -      -  13.2  385s
 1475889  1689 infeasible   44      -7776.4486          -      -  13.2  390s
 1495225  1607 infeasible   43      -7776.4486          -      -  13.2  395s
 1515957  1549  postponed   38      -7776.4486          -      -  13.2  400s
 1536644  1621 infeasible   43      -7776.4486          -      -  13.2  405s
 1555767  1581  postponed   42      -7776.4486          -      -  13.2  410s
 1576251  1627  postponed   40      -7776.4486          -      -  13.2  415s
 1597111  1529 infeasible   45      -7776.4486          -      -  13.2  420s
 1618012  1392  postponed   44      -7776.4486          -      -  13.1  425s
 1638732  1379 infeasible   43      -7776.4486          -      -  13.1  430s
 1659663  1628  postponed   41      -7776.4486          -      -  13.1  435s
 1677188  1943  postponed   40      -7776.4486          -      -  13.1  440s
 1696106  2034  postponed   39      -7776.4486          -      -  13.1  445s
 1715726  2128  postponed   40      -7776.4486          -      -  13.0  450s
 1735921  2006 infeasible   42      -7776.4486          -      -  13.0  455s
 1755227  1898 infeasible   41      -7776.4486          -      -  13.0  460s
 1774412  1770  postponed   40      -7776.4486          -      -  13.0  465s
 1794427  1713  postponed   37      -7776.4486          -      -  13.0  470s
 1815503  1718  postponed   41      -7776.4486          -      -  13.0  475s
 1835825  1646 infeasible   40      -7776.4486          -      -  12.9  480s
 1855158  1886  postponed   40      -7776.4486          -      -  12.9  485s
 1874604  2036 infeasible   47      -7776.4486          -      -  12.9  490s
 1894223  2037  postponed   47      -7776.4486          -      -  12.9  495s
 1913794  2017 infeasible   41      -7776.4486          -      -  12.9  500s
 1931674  2128  postponed   41      -7776.4486          -      -  12.9  505s
 1950840  2025  postponed   39      -7776.4486          -      -  12.9  510s
 1970292  1923  postponed   43      -7776.4486          -      -  12.8  515s
 1989517  1858 infeasible   44      -7776.4486          -      -  12.8  520s
 2008736  1824  postponed   44      -7776.4486          -      -  12.8  525s
 2028049  1925  postponed   43      -7776.4486          -      -  12.8  530s
 2047478  1806 infeasible   45      -7776.4486          -      -  12.8  535s
 2066836  1735 infeasible   46      -7776.4486          -      -  12.8  540s
 2086280  1697 infeasible   42      -7776.4486          -      -  12.8  545s
 2105651  1584  postponed   41      -7776.4486          -      -  12.8  550s
 2125458  1480  postponed   39      -7776.4486          -      -  12.8  555s
 2144741  1518  postponed   41      -7776.4486          -      -  12.8  560s
 2165658  1408 infeasible   42      -7776.4486          -      -  12.7  565s
 2186166  1465  postponed   39      -7776.4486          -      -  12.7  570s
 2205024  1555 infeasible   42      -7776.4486          -      -  12.7  575s
 2225530  1541  postponed   39      -7776.4486          -      -  12.6  580s
 2245814  1405  postponed   43      -7776.4486          -      -  12.6  585s
 2265271  1275 infeasible   40      -7776.4486          -      -  12.6  590s
 2286498  1578 infeasible   43      -7776.4486          -      -  12.6  595s
 2307229  1710 infeasible   41      -7776.4486          -      -  12.6  600s

Explored 2307998 nodes (28968164 simplex iterations) in 600.02 seconds (99.68 work units)
Thread count was 8 (of 8 available processors)

Solution count 1: -7776.45 

Time limit reached
Best objective 6.884705267428e+04, best bound -, gap -

User-callback calls 4619169, time in user-callback 46.67 sec
